certificates/rado_a7_c3_N44.cnf
c Rad2 upper bound instance: x1 + 7*x2 - x3 = 3, interval [1,44]
p cnf 44 270
1 5 0
-1 -5 0
1 2 12 0
-1 -2 -12 0
1 3 19 0
-1 -3 -19 0
1 4 26 0
-1 -4 -26 0
1 5 33 0
-1 -5 -33 0
1 6 40 0
-1 -6 -40 0
1 2 6 0
-1 -2 -6 0
2 13 0
-2 -13 0
2 3 20 0
-2 -3 -20 0
2 4 27 0
-2 -4 -27 0
2 5 34 0
-2 -5 -34 0
2 6 41 0
-2 -6 -41 0
1 3 7 0
-1 -3 -7 0
2 3 14 0
-2 -3 -14 0
3 21 0
-3 -21 0
3 4 28 0
-3 -4 -28 0
3 5 35 0
-3 -5 -35 0
3 6 42 0
-3 -6 -42 0
1 4 8 0
-1 -4 -8 0
2 4 15 0
-2 -4 -15 0
3 4 22 0
-3 -4 -22 0
4 29 0
-4 -29 0
4 5 36 0
-4 -5 -36 0
4 6 43 0
-4 -6 -43 0
1 5 9 0
-1 -5 -9 0
2 5 16 0
-2 -5 -16 0
3 5 23 0
-3 -5 -23 0
4 5 30 0
-4 -5 -30 0
5 37 0
-5 -37 0
5 6 44 0
-5 -6 -44 0
1 6 10 0
-1 -6 -10 0
2 6 17 0
-2 -6 -17 0
3 6 24 0
-3 -6 -24 0
4 6 31 0
-4 -6 -31 0
5 6 38 0
-5 -6 -38 0
1 7 11 0
-1 -7 -11 0
2 7 18 0
-2 -7 -18 0
3 7 25 0
-3 -7 -25 0
4 7 32 0
-4 -7 -32 0
5 7 39 0
-5 -7 -39 0
1 8 12 0
-1 -8 -12 0
2 8 19 0
-2 -8 -19 0
3 8 26 0
-3 -8 -26 0
4 8 33 0
-4 -8 -33 0
5 8 40 0
-5 -8 -40 0
1 9 13 0
-1 -9 -13 0
2 9 20 0
-2 -9 -20 0
3 9 27 0
-3 -9 -27 0
4 9 34 0
-4 -9 -34 0
5 9 41 0
-5 -9 -41 0
1 10 14 0
-1 -10 -14 0
2 10 21 0
-2 -10 -21 0
3 10 28 0
-3 -10 -28 0
4 10 35 0
-4 -10 -35 0
5 10 42 0
-5 -10 -42 0
1 11 15 0
-1 -11 -15 0
2 11 22 0
-2 -11 -22 0
3 11 29 0
-3 -11 -29 0
4 11 36 0
-4 -11 -36 0
5 11 43 0
-5 -11 -43 0
1 12 16 0
-1 -12 -16 0
2 12 23 0
-2 -12 -23 0
3 12 30 0
-3 -12 -30 0
4 12 37 0
-4 -12 -37 0
5 12 44 0
-5 -12 -44 0
1 13 17 0
-1 -13 -17 0
2 13 24 0
-2 -13 -24 0
3 13 31 0
-3 -13 -31 0
4 13 38 0
-4 -13 -38 0
1 14 18 0
-1 -14 -18 0
2 14 25 0
-2 -14 -25 0
3 14 32 0
-3 -14 -32 0
4 14 39 0
-4 -14 -39 0
1 15 19 0
-1 -15 -19 0
2 15 26 0
-2 -15 -26 0
3 15 33 0
-3 -15 -33 0
4 15 40 0
-4 -15 -40 0
1 16 20 0
-1 -16 -20 0
2 16 27 0
-2 -16 -27 0
3 16 34 0
-3 -16 -34 0
4 16 41 0
-4 -16 -41 0
1 17 21 0
-1 -17 -21 0
2 17 28 0
-2 -17 -28 0
3 17 35 0
-3 -17 -35 0
4 17 42 0
-4 -17 -42 0
1 18 22 0
-1 -18 -22 0
2 18 29 0
-2 -18 -29 0
3 18 36 0
-3 -18 -36 0
4 18 43 0
-4 -18 -43 0
1 19 23 0
-1 -19 -23 0
2 19 30 0
-2 -19 -30 0
3 19 37 0
-3 -19 -37 0
4 19 44 0
-4 -19 -44 0
1 20 24 0
-1 -20 -24 0
2 20 31 0
-2 -20 -31 0
3 20 38 0
-3 -20 -38 0
1 21 25 0
-1 -21 -25 0
2 21 32 0
-2 -21 -32 0
3 21 39 0
-3 -21 -39 0
1 22 26 0
-1 -22 -26 0
2 22 33 0
-2 -22 -33 0
3 22 40 0
-3 -22 -40 0
1 23 27 0
-1 -23 -27 0
2 23 34 0
-2 -23 -34 0
3 23 41 0
-3 -23 -41 0
1 24 28 0
-1 -24 -28 0
2 24 35 0
-2 -24 -35 0
3 24 42 0
-3 -24 -42 0
1 25 29 0
-1 -25 -29 0
2 25 36 0
-2 -25 -36 0
3 25 43 0
-3 -25 -43 0
1 26 30 0
-1 -26 -30 0
2 26 37 0
-2 -26 -37 0
3 26 44 0
-3 -26 -44 0
1 27 31 0
-1 -27 -31 0
2 27 38 0
-2 -27 -38 0
1 28 32 0
-1 -28 -32 0
2 28 39 0
-2 -28 -39 0
1 29 33 0
-1 -29 -33 0
2 29 40 0
-2 -29 -40 0
1 30 34 0
-1 -30 -34 0
2 30 41 0
-2 -30 -41 0
1 31 35 0
-1 -31 -35 0
2 31 42 0
-2 -31 -42 0
1 32 36 0
-1 -32 -36 0
2 32 43 0
-2 -32 -43 0
1 33 37 0
-1 -33 -37 0
2 33 44 0
-2 -33 -44 0
1 34 38 0
-1 -34 -38 0
1 35 39 0
-1 -35 -39 0
1 36 40 0
-1 -36 -40 0
1 37 41 0
-1 -37 -41 0
1 38 42 0
-1 -38 -42 0
1 39 43 0
-1 -39 -43 0
1 40 44 0
-1 -40 -44 0
