certificates/rado_a7_c3_N44.drat
1 -42 -44 0
-42 -44 0
d 1 -42 -44 0
5 40 -43 42 0
40 -43 -44 0
-40 -44 0
d -40 -1 -44 0
-5 -44 0
-44 0
40 0
5 0
-1 0
-37 0
-8 0
41 0
33 0
12 0
4 0
-9 0
-29 0
-36 0
-30 0
-15 0
-16 0
13 0
25 0
32 0
34 0
26 0
19 0
11 0
20 0
-2 0
-38 0
-7 0
-43 0
6 0
27 0
18 0
42 0
3 0
39 0
0
